p cnf 25 52
1 5 0
1 6 0
1 5 0
2 5 0
2 0
2 5 0
3 5 0
3 5 0
3 5 0
4 5 0
-10 -7 0
-10 -8 0
-10 -9 0
-19 -16 0
-19 -17 0
-19 -18 0
-1 10 19 0
-11 -7 0
-11 -8 0
-11 9 0
-20 -16 0
-20 -17 0
-20 18 0
-2 11 20 0
-12 -7 0
-12 8 0
-12 -9 0
-21 -16 0
-21 17 0
-21 -18 0
-3 12 21 0
-13 -7 0
-13 8 0
-13 9 0
-22 -16 0
-22 17 0
-22 18 0
-4 13 22 0
-14 7 0
-14 -8 0
-14 -9 0
-23 16 0
-23 -17 0
-23 -18 0
-5 14 23 0
-15 7 0
-15 -8 0
-15 9 0
-24 16 0
-24 -17 0
-24 18 0
-6 15 24 0